%mem=1GB
%nprocshared=1
%chk=O2.chk
#p UCAM-B3LYP/def2TZVP nosymm int=nobasistransform

title

0 3
O   0.0  0.0   0.0
O   0.0  0.0   1.1616

