%chk=gau.chk
%nprocs=2
%mem=4GB
#p PBE1PBE/def2TZVP 

methanol
 
0 1
C         -4.89126        3.29770        0.00029
H         -5.28213        3.05494       -1.01161
O         -3.49307        3.28429       -0.00328
H         -5.28213        2.58374        0.75736
H         -5.23998        4.31540        0.27138
H         -3.22959        2.35981       -0.24953



